(set-logic QF_UF)
(declare-sort utt$8 0)
(declare-fun BitWiseXor_8_8_8 (utt$8 utt$8) utt$8)
(declare-fun y$n0s8 () utt$8)
(declare-fun y$n1s8 () utt$8)
(declare-fun y$n2s8 () utt$8)
(declare-fun y$n3s8 () utt$8)
(declare-fun y$n4s8 () utt$8)
(declare-fun y$n5s8 () utt$8)
(declare-fun y$v3_1517448500_103_op () utt$8)
(declare-fun y$v3_1517448500_104_op () utt$8)
(declare-fun y$v3_1517448500_105_op () utt$8)
(declare-fun y$v3_1517448500_106_op () utt$8)
(declare-fun y$v3_1517448500_207$next_op () utt$8)
(declare-fun y$v3_1517448500_212$next_op () utt$8)
(declare-fun y$v3_1517448500_217$next_op () utt$8)
(declare-fun y$v3_1517448500_222$next_op () utt$8)
(declare-fun y$v3_1517448500_223$next_op () utt$8)
(declare-fun y$v3_1517448500_224$next_op () utt$8)
(declare-fun y$v3_1517448500_225$next_op () utt$8)
(declare-fun y$v3_1517448500_226$next_op () utt$8)
(declare-fun y$v3_1517448500_30_op () Bool)
(declare-fun y$v3_1517448500_34_op () utt$8)
(declare-fun y$v3_1517448500_37_op () utt$8)
(declare-fun y$v3_1517448500_41_op () utt$8)
(declare-fun y$v3_1517448500_45_op () utt$8)
(declare-fun y$v3_1517448500_47$next_op () utt$8)
(declare-fun y$v3_1517448500_47_op () utt$8)
(declare-fun y$v3_1517448500_48_op () utt$8)
(declare-fun y$v3_1517448500_49_op () utt$8)
(declare-fun y$v3_1517448500_50_op () utt$8)
(declare-fun y$v3_1517448500_51_op () utt$8)
(declare-fun y$v3_1517448500_52_op () utt$8)
(declare-fun y$v3_1517448500_53_op () utt$8)
(declare-fun y$v3_1517448500_71_op () utt$8)
(declare-fun y$v3_1517448500_87_op () utt$8)
(declare-fun y$v_a_0 () utt$8)
(declare-fun y$v_a_0$next () utt$8)
(declare-fun y$v_a_0$next_rhs_op () utt$8)
(declare-fun y$v_a_5 () utt$8)
(declare-fun y$v_a_5$next_rhs$next_op () utt$8)
(assert (= true (= y$n0s8 y$v_a_0)))
(assert (= true (= y$n0s8 y$v_a_5)))
(assert (distinct y$n0s8 y$n1s8 y$n2s8 y$n3s8 y$n4s8 y$n5s8))
(assert (= y$v3_1517448500_47_op (BitWiseXor_8_8_8 y$n5s8 y$v_a_5)))
(assert (= y$v3_1517448500_48_op (ite false y$v3_1517448500_45_op y$v3_1517448500_47_op)))
(assert (= y$v3_1517448500_49_op (ite false y$v3_1517448500_41_op y$v3_1517448500_48_op)))
(assert (= y$v3_1517448500_50_op (ite false y$v3_1517448500_37_op y$v3_1517448500_49_op)))
(assert (= y$v3_1517448500_51_op (ite false y$v3_1517448500_34_op y$v3_1517448500_50_op)))
(assert (= y$v3_1517448500_52_op (ite false y$v_a_0 y$v3_1517448500_51_op)))
(assert (= y$v3_1517448500_53_op (ite false y$n0s8 y$v3_1517448500_52_op)))
(assert (= y$v3_1517448500_104_op (ite false y$v3_1517448500_103_op y$v_a_0)))
(assert (= y$v3_1517448500_105_op (ite false y$v3_1517448500_87_op y$v3_1517448500_104_op)))
(assert (= y$v3_1517448500_106_op (ite false y$v3_1517448500_71_op y$v3_1517448500_105_op)))
(assert (= y$v_a_0$next_rhs_op (ite y$v3_1517448500_30_op y$v3_1517448500_53_op y$v3_1517448500_106_op)))
(assert (= true (= y$v_a_0$next y$v_a_0$next_rhs_op)))
(assert (= true (= y$n5s8 y$v_a_0$next)))
(assert (= (= y$n0s8 y$v3_1517448500_47$next_op) true))
(assert (= y$v3_1517448500_223$next_op (ite false y$v3_1517448500_222$next_op y$v3_1517448500_47$next_op)))
(assert (= y$v3_1517448500_224$next_op (ite false y$v3_1517448500_217$next_op y$v3_1517448500_223$next_op)))
(assert (= y$v3_1517448500_225$next_op (ite false y$v3_1517448500_212$next_op y$v3_1517448500_224$next_op)))
(assert (= y$v3_1517448500_226$next_op (ite false y$v3_1517448500_207$next_op y$v3_1517448500_225$next_op)))
(assert (= y$v_a_5$next_rhs$next_op (BitWiseXor_8_8_8 y$n5s8 y$v3_1517448500_226$next_op)))
(assert (= true (not (= y$n5s8 y$v_a_5$next_rhs$next_op))))
(check-sat)
(exit)
